 vasp.6.3.1 04May22 (build May 25 2022 13:42:54) complex
 executed on        HPECrayEX_GCC date 2022.09.20  09:44:05

 INCAR:
   SYSTEM = hex-FASnI3
   ISMEAR = 0
   SIGMA = 0.05
   EDIFF = 5E-6
   EDIFFG = -0.01
   ALGO = ALL
   ISTART = 0
   IBRION = 2
   ISIF = 3
   NSW = 1000
   ISYM = 0
   GGA = MK
   PARAM1 = 0.1234
   PARAM2 = 1.0
   LUSE_VDW = .TRUE.
   AGGAC = 0.0
   ENCUT = 1000
   PREC = Accurate
   LASPH = .TRUE.
   LREAL = .FALSE.
   ISPIN = 1
   NELM = 200
   NELMIN = 8
   NCORE = 4
   KPAR = 2
   LWAVE = .FALSE.
   LCHARG = .FALSE.

 POTCAR:    PAW_PBE C 08Apr2002
 POTCAR:    PAW_PBE H 15Jun2001
 POTCAR:    PAW_PBE I 08Apr2002
 POTCAR:    PAW_PBE N 08Apr2002
 POTCAR:    PAW_PBE Sn 08Apr2002
|               ----> ADVICE to this user running VASP <----                  |
|     You have switched on vdW-DFT.                                           |
|     This routine was written and supplied by Jiri Klimes. We recommend      |
|     that you carefully read and cite the following publications:            |
|       J. Klimes, D.R. Bowler, A. Michelides                                 |
|          J. Phys.: Cond Matt. 22 022201 (2010)                              |
|       J. Klimes, D.R. Bowler, A. Michelides                                 |
|          Phys. Rev. B. 83, 195131 (2011)                                    |
|     and references therein.                                                 |

   TITEL  = PAW_PBE C 08Apr2002
   POMASS =   12.011; ZVAL   =    4.000    mass and valenz
   ENMAX  =  400.000; ENMIN  =  300.000 eV

   TITEL  = PAW_PBE H 15Jun2001
   POMASS =    1.000; ZVAL   =    1.000    mass and valenz
   ENMAX  =  250.000; ENMIN  =  200.000 eV

[...]

   TITEL  = PAW_PBE Sn 08Apr2002
   POMASS =  118.710; ZVAL   =    4.000    mass and valenz
   ENMAX  =  103.236; ENMIN  =   77.427 eV

 WARNING: PSMAXN for non-local potential too small
          PSMAXN should be >   16.200796971202056       NTYP=           5
|               ----> ADVICE to this user running VASP <----                  |
|     You enforced a specific xc type in the INCAR file but a different       |
|     type was found in the POTCAR file.                                      |
|     I HOPE YOU KNOW WHAT YOU ARE DOING!                                     |

  PAW_PBE C 08Apr2002                   :
  PAW_PBE H 15Jun2001                   :
  PAW_PBE I 08Apr2002                   :
  PAW_PBE N 08Apr2002                   :
  PAW_PBE Sn 08Apr2002                  :

 POSCAR:  C  H  I  N Sn
  positions in direct lattice
  velocities in cartesian coordinates
 exchange correlation table for  LEXCH =       43
   RHO(1)=    0.500       N(1)  =     2000
   RHO(2)=  100.500       N(2)  =     4000

 ion  position               nearest neighbor table
   1  0.662  0.531  0.310-   9 1.10  37 1.31  38 1.32
   2  0.321  0.463  0.794-  14 1.10  39 1.31  40 1.32
   3  0.842  0.067  0.758-  19 1.09  42 1.31  41 1.32
   4  0.178  0.025  0.204-  24 1.09  43 1.31  44 1.31
   5  0.675  0.457  0.060-  38 1.03
   6  0.658  0.292  0.319-  37 1.03
   7  0.643  0.394  0.513-  37 1.02
   8  0.678  0.658  0.100-  38 1.02
   9  0.658  0.637  0.391-   1 1.10
  10  0.362  0.585  0.583-  40 1.03
  11  0.446  0.557  0.859-  39 1.03
  12  0.393  0.441  0.012-  39 1.03
  13  0.257  0.491  0.568-  40 1.02
  14  0.265  0.391  0.840-   2 1.10
  15  0.839  0.838  0.829-  42 1.03
  16  0.855  0.940  0.533-  41 1.03
  17  0.854  0.140  0.516-  41 1.02
  18  0.833  0.980  0.994-  42 1.02
  19  0.839  0.186  0.810-   3 1.09
  20  0.133  0.945  0.435-  44 1.03
  21  0.180  0.786  0.174-  43 1.03
  22  0.216  0.893  1.000-  43 1.02
  23  0.141  0.146  0.418-  44 1.02
  24  0.193  0.132  0.138-   4 1.09
  25  0.604  0.240  0.815-  45 3.10  46 3.41
  26  0.417  0.745  0.294-  46 3.05  45 3.30
  27  0.930  0.776  0.255-  47 3.10  48 3.23
  28  0.079  0.254  0.745-  48 3.10  47 3.29
  29  0.330  0.018  0.761-  46 3.13  45 3.20
  30  0.672  0.978  0.259-  45 3.18  46 3.23
  31  0.171  0.479  0.234-  47 3.21  48 3.24
  32  0.828  0.533  0.734-  47 3.16  48 3.17
  33  0.415  0.245  0.272-  45 3.11  46 3.22
  34  0.581  0.736  0.751-  46 3.13  45 3.29
  35  0.087  0.757  0.711-  47 3.06  48 3.30
  36  0.895  0.273  0.198-  48 3.10  47 3.33
  37  0.654  0.397  0.385-   7 1.02   6 1.03   1 1.31
  38  0.674  0.548  0.146-   8 1.02   5 1.03   1 1.32
  39  0.390  0.492  0.896-  12 1.03  11 1.03   2 1.31
  40  0.314  0.516  0.639-  13 1.02  10 1.03   2 1.32
  41  0.849  0.047  0.592-  17 1.02  16 1.03   3 1.32
  42  0.837  0.953  0.867-  18 1.02  15 1.03   3 1.31
  43  0.191  0.892  0.121-  22 1.02  21 1.03   4 1.31
  44  0.149  0.039  0.362-  23 1.02  20 1.03   4 1.31
  45  0.497  0.997  0.022-  25 3.10  33 3.11  30 3.18  29 3.20  34 3.29  26 3.30
  46  0.502  0.997  0.523-  26 3.05  29 3.13  34 3.13  33 3.22  30 3.23  25 3.41
  47  0.997  0.509  0.482-  35 3.06  27 3.10  32 3.16  31 3.21  28 3.29  36 3.33
  48  0.998  0.513  0.982-  36 3.10  28 3.10  32 3.17  27 3.23  31 3.24  35 3.30

IMPORTANT INFORMATION: All symmetrisations will be switched off!
NOSYMM: (Re-)initialisation of all symmetry stuff for point group C_1.

                                     Primitive cell

  volume of cell :     987.8522

  direct lattice vectors                    reciprocal lattice vectors
    14.596021526 -0.012253857  0.024984028     0.068512115  0.000044636 -0.000150153
    -0.005854289  8.609831139 -0.111777447     0.000094846  0.116166684  0.001565384
     0.017299934 -0.105959037  7.862138732    -0.000216367  0.001651421  0.127214586

  length of vectors
    14.596048053  8.610558676  7.862871743     0.068512294  0.116177269  0.127225489

  position of ions in fractional coordinates (direct lattice)
     0.661710800  0.531331515  0.310434243
     0.320927937  0.463294732  0.793649601
     0.841573748  0.066707990  0.758192525
     0.178402794  0.024683921  0.204237630
     0.675406996  0.456705005  0.060133945
     0.657693251  0.292215273  0.319401169
     0.642924104  0.393665555  0.513231164
     0.677765767  0.658243183  0.100435275
     0.657751031  0.637033830  0.390808605
     0.361981287  0.584800634  0.583067489
     0.446047965  0.556803951  0.858557288
     0.392923325  0.440802181  0.011590219
     0.256637745  0.490603679  0.568000505
     0.264839285  0.390878583  0.839889442
     0.839045425  0.838172837  0.828874801
     0.855125130  0.939744876  0.532987570
     0.853918099  0.140447679  0.515599994
     0.832816078  0.979575097  0.993788470
     0.838754257  0.186006662  0.809564053
     0.132675369  0.945258921  0.435165356
     0.180201169  0.785981961  0.174406865
     0.216328364  0.893468386  0.999518615
     0.141354403  0.146287651  0.417840587
     0.193442542  0.131940175  0.137713776
     0.603503469  0.240264151  0.815308852
     0.417388163  0.744503045  0.294223709
     0.930261220  0.775718899  0.255387375
     0.078924828  0.254062070  0.745373274
     0.329645378  0.017786301  0.761156903
     0.671882046  0.977722200  0.259393305
     0.171240630  0.478571981  0.233996680
     0.827686482  0.532675140  0.733840110
     0.414638136  0.245498389  0.271695588
     0.580936208  0.736096892  0.751212130
     0.087343148  0.756990471  0.710529115
     0.894586774  0.273289619  0.198407166
     0.654032175  0.397055135  0.384694033
     0.674084080  0.548443982  0.146222660
     0.390216757  0.492456097  0.895722946
     0.313597990  0.515857978  0.638660622
     0.848576988  0.046716429  0.592231157
     0.837495887  0.953414626  0.866594699
     0.190624774  0.892215303  0.120857291
     0.148972997  0.038555376  0.362170122
     0.496525548  0.996796550  0.021754896
     0.501677275  0.996805829  0.523411167
     0.996592582  0.509109327  0.481611562
     0.997865038  0.513208506  0.981920291

  ion indices of the primitive-cell ions
   primitive index   ion index
                 1           1
                 2           2
                 3           3
                 4           4
                 5           5
                 6           6
                 7           7
                 8           8
                 9           9
                10          10
                11          11
                12          12
                13          13
                14          14
                15          15
                16          16
                17          17
                18          18
                19          19
                20          20
                21          21
                22          22
                23          23
                24          24
                25          25
                26          26
                27          27
                28          28
                29          29
                30          30
                31          31
                32          32
                33          33
                34          34
                35          35
                36          36
                37          37
                38          38
                39          39
                40          40
                41          41
                42          42
                43          43
                44          44
                45          45
                46          46
                47          47
                48          48

 KPOINTS: k-points

Automatic generation of k-mesh.
 Grid dimensions read from file:
 generate k-points for:    2    3    3

 Generating k-lattice:

  Cartesian coordinates                     Fractional coordinates (reciprocal lattice)
     0.034256057  0.000022318 -0.000075077     0.500000000 -0.000000000  0.000000000
     0.000031615  0.038722228  0.000521795    -0.000000000  0.333333333 -0.000000000
    -0.000072122  0.000550474  0.042404862    -0.000000000  0.000000000  0.333333333

  Length of vectors
     0.034256147  0.038725756  0.042408496

  Shift w.r.t. Gamma in fractional coordinates (k-lattice)
     0.000000000  0.000000000  0.000000000

 Subroutine IBZKPT returns following result:

 Found     10 irreducible k-points:

 Following reciprocal coordinates:
            Coordinates               Weight
  0.000000  0.000000  0.000000      1.000000
  0.500000  0.000000  0.000000      1.000000
  0.000000  0.333333  0.000000      2.000000
  0.500000  0.333333  0.000000      2.000000
  0.000000  0.000000  0.333333      2.000000
  0.500000  0.000000  0.333333      2.000000
  0.000000  0.333333  0.333333      2.000000
  0.500000  0.333333  0.333333      2.000000
  0.000000 -0.333333  0.333333      2.000000
  0.500000 -0.333333  0.333333      2.000000

 Following cartesian coordinates:
            Coordinates               Weight
  0.000000  0.000000  0.000000      1.000000
  0.034256  0.000022 -0.000075      1.000000
  0.000032  0.038722  0.000522      2.000000
  0.034288  0.038745  0.000447      2.000000
 -0.000072  0.000550  0.042405      2.000000
  0.034184  0.000573  0.042330      2.000000
 -0.000041  0.039273  0.042927      2.000000
  0.034216  0.039295  0.042852      2.000000
 -0.000104 -0.038172  0.041883      2.000000
  0.034152 -0.038149  0.041808      2.000000

 SYSTEM =  hex-FASnI3
[...]
 d Force =-0.3451567E+00[-0.346E+00,-0.344E+00]  d Ewald  =-0.2624662E+00-0.827E-01

 Steepest descent step on ions:
 trial-energy change:    0.000205  1 .order    0.000206   -0.000192    0.000605
  (g-gl).g = 0.192E-03      g.g   = 0.192E-03  gl.gl    = 0.000E+00
 g(Force)  = 0.189E-03   g(Stress)= 0.317E-05 ortho     = 0.000E+00
 gamma     =   0.00000
 trial     =   1.00000
 opt step  =   0.24122  (harmonic =   0.24122) maximal distance =0.00022881
 next E    =  -171.714289   (d E  =  -0.00002)

[...]

 eigenvalue-minimisations  :     0
 total energy-change (2. order) : 0.1580561E-02  (-0.1397027E-02)
 number of electron     176.0000000 magnetization
 augmentation part      -21.8079356 magnetization

[...]

--------------------------------------- Iteration      3(   8)  ---------------------------------------

 eigenvalue-minimisations  :     0
 total energy-change (2. order) :-0.2199440E-06  (-0.5935264E-07)
 number of electron     176.0000000 magnetization
 augmentation part      -21.8074567 magnetization

 Free energy of the ion-electron system (eV)
  alpha Z        PSCENC =       116.96902450
  Ewald energy   TEWEN  =     -4681.03007071
  -Hartree energ DENC   =     -2288.30593525
  -exchange      EXHF   =         0.00000000
  -V(xc)+E(xc)   XCENC  =      -359.33690316
  PAW double counting   =     11686.04495513   -10867.27191504
  entropy T*S    EENTRO =        -0.00000000
  eigenvalues    EBANDS =      -939.26176702
  atomic energy  EATOM  =      7160.47832104
  free energy    TOTEN  =      -171.71429051 eV

  energy without entropy =     -171.71429051  energy(sigma->0) =     -171.71429051

  average scaling for gradient   0.9228

 average (electrostatic) potential at core
  the test charge radii are     0.6991  0.5201  1.1875  0.7089  1.4072
  (the norm of the test charge is              1.0000)
       1 -55.6977       2 -55.6473       3 -55.6650       4 -55.6681       5 -38.5839
       6 -38.5407       7 -38.5533       8 -38.5972       9 -37.4130      10 -38.5503
      11 -38.3977      12 -38.4178      13 -38.5498      14 -37.3802      15 -38.5155
      16 -38.5836      17 -38.5831      18 -38.5189      19 -37.3762      20 -38.5363
      21 -38.5020      22 -38.4747      23 -38.5589      24 -37.4224      25 -93.4545
      26 -93.5094      27 -93.5246      28 -93.5184      29 -93.5082      30 -93.5735
      31 -93.6612      32 -93.7017      33 -93.5096      34 -93.5528      35 -93.5070
      36 -93.4855      37 -69.0492      38 -69.0711      39 -68.9344      40 -69.0093
      41 -69.0283      42 -68.9961      43 -68.9862      44 -69.0180      45 -47.3764
      46 -47.4054      47 -47.3983      48 -47.4474

 E-fermi :   1.9179     XC(G=0):  -7.8816     alpha+bet : -7.1425

 Fermi energy:         1.9179198416

[...]

 k-point    10 :       0.5000   -0.3333    0.3333
  band No.  band energies     occupation
      1     -18.9105      2.00000
      2     -18.8761      2.00000
      3     -18.8686      2.00000
      4     -18.8443      2.00000
      5     -16.7040      2.00000
      6     -16.6614      2.00000
      7     -16.6573      2.00000
      8     -16.6177      2.00000
      9     -10.7926      2.00000
     10     -10.7565      2.00000
     11     -10.7199      2.00000
     12     -10.6713      2.00000
     13     -10.4985      2.00000
     14     -10.4713      2.00000
     15     -10.3840      2.00000
     16     -10.3164      2.00000
     17     -10.2436      2.00000
     18     -10.1983      2.00000
     19     -10.1749      2.00000
     20     -10.1454      2.00000
     21     -10.1064      2.00000
     22     -10.0942      2.00000
     23     -10.0746      2.00000
     24     -10.0419      2.00000
     25      -8.7886      2.00000
     26      -8.7643      2.00000
     27      -8.7499      2.00000
     28      -8.7207      2.00000
     29      -8.1414      2.00000
     30      -8.1079      2.00000
     31      -8.1025      2.00000
     32      -8.0496      2.00000
     33      -6.4800      2.00000
     34      -6.4414      2.00000
     35      -6.4297      2.00000
     36      -6.3980      2.00000
     37      -5.0189      2.00000
     38      -4.9689      2.00000
     39      -4.9618      2.00000
     40      -4.9403      2.00000
     41      -4.8930      2.00000
     42      -4.8429      2.00000
     43      -4.8204      2.00000
     44      -4.7602      2.00000
     45      -4.4052      2.00000
     46      -4.3674      2.00000
     47      -4.3561      2.00000
     48      -4.3384      2.00000
     49      -1.6998      2.00000
     50      -1.5589      2.00000
     51      -1.4500      2.00000
     52      -1.3855      2.00000
     53      -1.3355      2.00000
     54      -1.2946      2.00000
     55      -1.2472      2.00000
     56      -1.2022      2.00000
     57      -1.1493      2.00000
     58      -1.1026      2.00000
     59      -1.0304      2.00000
     60      -1.0067      2.00000
[...]
    106       6.2722      0.00000
    107       6.5062      0.00000
    108       6.6433      0.00000
    109       6.7992      0.00000
    110       6.8144      0.00000
    111       6.9219      0.00000
    112       7.0219      0.00000
    113       7.0748      0.00000
    114       7.1851      0.00000
    115       7.3337      0.00000
    116       7.3812      0.00000
    117       7.4640      0.00000
    118       7.5535      0.00000
    119       7.7772      0.00000
    120       7.8323      0.00000

 soft charge-density along one line, spin component           1
         0         1         2         3         4         5         6         7         8         9
 total charge-density along one line

------------------------ aborting loop because EDIFF is reached ----------------------------------------

  FORCE on cell =-STRESS in cart. coord.  units (eV):
  Direction    XX          YY          ZZ          XY          YZ          ZX
  Alpha Z   116.96902   116.96902   116.96902
  Ewald   -2521.89382 -1400.65688  -758.50123   159.64491  -212.68345  -152.46250
  Hartree   396.33315   787.79112  1104.18048    43.93528   -92.77644   -50.72061
  E(xc)    -692.38500  -687.73128  -687.55110     0.81252    -0.57407    -0.73297
  Local    -808.09307 -2169.81148 -3088.58578  -178.42670   286.19374   180.50871
  n-local  1649.34188  1649.24842  1652.59848    -0.20510    -0.56175     0.16480
  augment  -477.96791  -480.40506  -479.15798    -0.48885     0.25906     0.24282
  Kinetic  2337.69694  2184.57685  2140.04620   -25.27364    20.12272    22.98511
  Fock        0.00000     0.00000     0.00000     0.00000     0.00000     0.00000
  Total       0.00119    -0.01928    -0.00192    -0.00158    -0.02018    -0.01464
  in kB       0.00193    -0.03127    -0.00311    -0.00256    -0.03274    -0.02375

 VOLUME and BASIS-vectors are now :
  energy-cutoff  :     1000.00
  volume of cell :      987.84
      direct lattice vectors                 reciprocal lattice vectors
    14.596007872 -0.012262063  0.024933037     0.068512178  0.000044673 -0.000149915
    -0.005858691  8.609770765 -0.111831353     0.000094917  0.116167518  0.001566129
     0.017272541 -0.106008086  7.862097006    -0.000215922  0.001652238  0.127215281

  length of vectors
    14.596034319  8.610499010  7.862830621     0.068512356  0.116178113  0.127226193

 FORCES acting on ions:
    Electron-Ion                     Ewald-Force                    Non-Local-Force
   0.495E+01 -.861E+02 -.601E+02   -.537E+01 0.916E+02 0.638E+02   0.416E+00 -.549E+01 -.378E+01
   0.788E+02 0.586E+02 -.329E+02   -.836E+02 -.626E+02 0.352E+02   0.480E+01 0.395E+01 -.234E+01
   0.188E+01 -.924E+02 -.363E+02   -.196E+01 0.987E+02 0.388E+02   0.835E-01 -.629E+01 -.250E+01
   -.176E+02 -.893E+02 0.514E+02   0.191E+02 0.948E+02 -.545E+02   -.144E+01 -.548E+01 0.317E+01
   -.367E+01 0.461E+02 0.507E+02   0.382E+01 -.516E+02 -.555E+02   -.153E+00 0.549E+01 0.485E+01
   -.138E+01 0.623E+02 0.258E+02   0.175E+01 -.687E+02 -.292E+02   -.373E+00 0.639E+01 0.345E+01
   0.124E+02 0.746E+01 -.671E+02   -.136E+02 -.784E+01 0.744E+02   0.116E+01 0.383E+00 -.730E+01
   -.556E+01 -.623E+02 0.315E+02   0.595E+01 0.692E+02 -.343E+02   -.392E+00 -.693E+01 0.278E+01
   0.204E+01 -.483E+02 -.342E+02   -.237E+01 0.533E+02 0.377E+02   0.330E+00 -.505E+01 -.346E+01
   -.421E+02 -.406E+02 0.358E+02   0.471E+02 0.448E+02 -.390E+02   -.496E+01 -.429E+01 0.328E+01
   -.549E+02 -.352E+02 0.112E+02   0.606E+02 0.391E+02 -.132E+02   -.573E+01 -.387E+01 0.197E+01
   -.643E+01 0.266E+02 -.610E+02   0.681E+01 -.299E+02 0.676E+02   -.374E+00 0.322E+01 -.658E+01
   0.544E+02 0.115E+02 0.411E+02   -.605E+02 -.130E+02 -.452E+02   0.605E+01 0.148E+01 0.411E+01
   0.438E+02 0.336E+02 -.204E+02   -.484E+02 -.371E+02 0.224E+02   0.458E+01 0.353E+01 -.205E+01
   -.126E+01 0.670E+02 0.978E+01   0.141E+01 -.740E+02 -.117E+02   -.151E+00 0.700E+01 0.189E+01
   -.605E+01 0.588E+02 0.364E+02   0.674E+01 -.653E+02 -.398E+02   -.688E+00 0.648E+01 0.337E+01
   -.651E+01 -.520E+02 0.444E+02   0.707E+01 0.579E+02 -.489E+02   -.553E+00 -.585E+01 0.453E+01
   0.371E+01 -.803E+01 -.679E+02   -.419E+01 0.952E+01 0.752E+02   0.476E+00 -.149E+01 -.732E+01
   0.163E+01 -.538E+02 -.211E+02   -.187E+01 0.595E+02 0.233E+02   0.241E+00 -.574E+01 -.220E+01
   0.162E+02 0.486E+02 -.452E+02   -.179E+02 -.543E+02 0.495E+02   0.172E+01 0.569E+01 -.426E+01
   0.776E+01 0.632E+02 -.212E+02   -.878E+01 -.697E+02 0.241E+02   0.102E+01 0.655E+01 -.295E+01
   -.235E+02 0.497E+01 0.638E+02   0.262E+02 -.488E+01 -.707E+02   -.267E+01 -.925E-01 0.688E+01
   0.860E+01 -.601E+02 -.326E+02   -.943E+01 0.668E+02 0.358E+02   0.831E+00 -.670E+01 -.318E+01
   -.104E+02 -.495E+02 0.303E+02   0.117E+02 0.547E+02 -.333E+02   -.122E+01 -.522E+01 0.298E+01
   0.882E+01 0.745E+01 0.522E+01   -.796E+01 -.644E+01 -.544E+01   -.898E+00 -.105E+01 0.222E+00
   0.767E+01 -.582E+00 -.189E+00   -.857E+01 -.947E+00 -.327E+00   0.933E+00 0.159E+01 0.538E+00
   0.885E+00 0.293E+01 0.610E+01   -.138E+01 -.137E+01 -.639E+01   0.512E+00 -.162E+01 0.302E+00
   -.865E+01 0.843E+01 -.107E+02   0.925E+01 -.101E+02 0.108E+02   -.622E+00 0.179E+01 -.779E-01
   0.467E+01 0.374E+01 0.151E+02   -.631E+01 -.344E+01 -.154E+02   0.170E+01 -.311E+00 0.332E+00
   0.268E+00 0.288E+01 -.336E+00   0.130E+01 -.297E+01 0.391E+00   -.163E+01 0.880E-01 -.569E-01
   0.377E+00 0.503E+01 0.165E+01   0.115E+01 -.535E+01 -.181E+01   -.159E+01 0.334E+00 0.164E+00
   -.538E-01 -.178E+01 0.183E+01   -.179E+01 0.173E+01 -.187E+01   0.192E+01 0.595E-01 0.462E-01
   0.978E+01 0.144E+01 -.154E+02   -.107E+02 -.640E-01 0.159E+02   0.993E+00 -.143E+01 -.572E+00
   -.699E+01 -.114E+02 0.386E+01   0.812E+01 0.103E+02 -.379E+01   -.118E+01 0.116E+01 -.727E-01
   -.652E+01 -.672E+01 -.649E+01   0.735E+01 0.825E+01 0.699E+01   -.852E+00 -.158E+01 -.522E+00
   -.211E+02 0.987E+00 -.379E+00   0.203E+02 -.224E+01 0.469E+00   0.909E+00 0.131E+01 -.917E-01
   0.164E+02 0.102E+03 -.747E+02   -.167E+02 -.108E+03 0.779E+02   0.215E+00 0.609E+01 -.312E+01
   -.233E+02 -.332E+02 0.123E+03   0.256E+02 0.339E+02 -.130E+03   -.224E+01 -.648E+00 0.649E+01
   -.832E+02 -.193E+02 -.880E+02   0.881E+02 0.222E+02 0.932E+02   -.487E+01 -.286E+01 -.521E+01
   0.255E+02 -.375E+02 0.120E+03   -.258E+02 0.394E+02 -.127E+03   0.281E+00 -.194E+01 0.617E+01
   -.817E+01 0.181E+01 0.125E+03   0.709E+01 -.261E+01 -.131E+03   0.109E+01 0.807E+00 0.655E+01
   0.369E+01 0.882E+02 -.959E+02   -.399E+01 -.935E+02 0.100E+03   0.292E+00 0.527E+01 -.452E+01
   -.160E+02 0.987E+02 0.772E+02   0.158E+02 -.105E+03 -.812E+02   0.236E+00 0.612E+01 0.394E+01
   0.379E+02 -.271E+02 -.119E+03   -.400E+02 0.276E+02 0.125E+03   0.215E+01 -.459E+00 -.626E+01
   0.478E+01 0.537E+01 0.336E+01   -.495E+01 -.630E+01 -.340E+01   0.232E+00 0.130E+01 0.487E-01
   0.218E+01 -.626E+01 -.487E+01   -.150E+01 0.737E+01 0.513E+01   -.932E+00 -.154E+01 -.363E+00
   -.747E+00 0.661E+01 0.261E+01   0.630E+00 -.773E+01 -.284E+01   0.162E+00 0.155E+01 0.327E+00
   -.459E+01 -.308E+01 -.170E+01   0.495E+01 0.392E+01 0.173E+01   -.485E+00 -.116E+01 -.486E-01
   0.653E+00 -.546E+00 0.447E+00   -.426E-13 0.782E-13 -.426E-13   -.652E+00 0.545E+00 -.446E+00

 POSITION                                       TOTAL-FORCE (eV/Angst)
      9.66058      4.53352      2.39765        -0.000895      0.001804     -0.002816
      4.69533      3.90084      6.19584         0.002355     -0.000731     -0.000039
     12.29632      0.48355      5.97443        -0.000459     -0.001765     -0.000140
      2.60735      0.18870      1.60745         0.001467      0.002767     -0.002258
      9.85656      3.91758      0.43867        -0.003580      0.003260      0.004991
      9.60349      2.47397      2.49489        -0.000904      0.003819      0.003601
      9.39071      3.32708      4.00701         0.001262      0.000779      0.000095
      9.89052      5.64837      0.73292        -0.002735     -0.000467      0.000520
      9.60357      5.43518      3.01770         0.001158     -0.004954     -0.004826
      5.29016      4.96876      4.52779        -0.001180     -0.001911      0.003907
      6.52197      4.69744      6.69892        -0.001932      0.002031     -0.002042
      5.73270      3.78911      0.05171        -0.001955     -0.000577      0.000829
      3.75278      4.16061      4.41725        -0.006774     -0.002553      0.001413
      3.87777      3.27310      6.56617        -0.000186      0.003179     -0.001748
     12.25612      7.11843      6.44391         0.000301     -0.001063     -0.000700
     12.48510      8.02397      4.10668        -0.000884     -0.002082      0.004355
     12.47188      1.14410      4.05927         0.000187     -0.000321      0.000019
     12.16720      8.31842      7.72461        -0.000255      0.002609     -0.000392
     12.25535      1.50542      6.36495        -0.000129     -0.000098     -0.003660
      1.93852      8.09070      3.31891         0.000701     -0.004990      0.000953
      2.62861      6.74636      1.28781        -0.001456     -0.004647      0.002362
      3.16963      7.58396      7.76364         0.000426      0.000502      0.002097
      2.06956      1.21364      3.27230         0.000745     -0.003433     -0.004369
      2.82509      1.11903      1.07274        -0.000763      0.000922     -0.002660
      8.82138      1.97481      6.39819        -0.002527      0.001360     -0.002286
      6.09295      6.37369      2.24040         0.002418     -0.000761      0.003051
     13.57800      6.64029      1.94431         0.002190      0.000913     -0.001273
      1.16335      2.10742      5.83372        -0.001984     -0.001538     -0.002675
      4.82456      0.06840      5.99051         0.000769     -0.000668     -0.000940
      9.80558      8.38224      1.94679         0.002897      0.001178      0.000235
      2.50066      4.09349      1.79046        -0.000200     -0.000139      0.000165
     12.09053      4.49830      5.73060         0.004213      0.002123      0.000499
      6.05531      2.07981      2.11896        -0.000672      0.001121     -0.001353
      8.48803      6.25085      5.83831         0.001746     -0.001587      0.003357
      1.28275      6.44113      5.50377         0.003853      0.001459     -0.000297
     13.05924      2.32094      1.55166         0.001369     -0.001828      0.001808
      9.55058      3.36989      2.99649         0.001427     -0.001706     -0.001546
      9.83823      4.69818      1.10506        -0.001519      0.002773     -0.000477
      5.70830      4.14030      6.99686        -0.001244     -0.000230      0.002644
      4.58516      4.36982      4.97135        -0.001688      0.002867     -0.004268
     12.39580      0.32903      4.67215         0.001770     -0.000534     -0.004576
     12.23347      8.10641      6.72737        -0.002383      0.002025      0.005112
      2.77914      7.66667      0.85540         0.002149     -0.003024     -0.004825
      2.18049      0.29146      2.84667        -0.000967      0.004761      0.005222
      7.24184      8.57380      0.07197         0.001133      0.000182      0.001582
      7.32568      8.52062      4.01613         0.000051     -0.001191     -0.000645
     14.55161      4.32005      3.75442         0.000339      0.001201      0.002591
     14.57883      4.30227      7.68743         0.002347     -0.000836     -0.000597
    total drift:                                0.000329     -0.000642      0.001003

  FREE ENERGIE OF THE ION-ELECTRON SYSTEM (eV)
  free  energy   TOTEN  =      -171.71429051 eV

  energy  without entropy=     -171.71429051  energy(sigma->0) =     -171.71429051

 d Force = 0.2306207E-03[ 0.246E-05, 0.459E-03]  d Energy = 0.2300099E-03 0.611E-06
 d Force = 0.2621250E+00[ 0.261E+00, 0.263E+00]  d Ewald  = 0.1993695E+00 0.628E-01

 reached required accuracy - stopping structural energy minimisation